c This cnf file is generated with the following input: k = 3, n = 150, r = 0.2
p cnf 150 30
17 -38 142 0
-120 141 -143 0
16 53 -107 0
17 -90 -44 0
3 92 47 0
-58 74 125 0
37 -93 -63 0
-23 55 -140 0
-23 103 -138 0
98 85 103 0
-18 67 142 0
32 67 -137 0
130 68 78 0
52 -134 -72 0
32 -119 -143 0
-119 -76 -112 0
90 -144 47 0
-20 -62 29 0
-1 109 -64 0
-114 -116 133 0
40 -141 -93 0
-53 150 -119 0
-134 -93 -61 0
100 -102 56 0
-23 89 -95 0
-150 -38 31 0
-53 -7 -75 0
-125 61 29 0
-83 139 -16 0
-81 -22 -76 0
